id: 1111
name: mining
group: miplib2010
method: 2

Gurobi 7.0.2 (linux64, Matlab) logging started Tue Mar 27 05:42:23 2018


Gurobi 7.0.2 (linux64) logging started Tue Mar 27 05:42:23 2018

Optimize a model with 661133 rows, 348921 columns and 3844879 nonzeros
Coefficient statistics:
  Matrix range     [7e-01, 3e+04]
  Objective range  [3e-02, 9e+08]
  Bounds range     [1e+00, 2e+00]
  RHS range        [1e+00, 1e+07]
Presolve removed 39 rows and 1 columns
Presolve time: 0.76s
Presolved: 661094 rows, 348958 columns, 2754430 nonzeros

Ordering time: 0.30s

Barrier statistics:
 AA' NZ     : 6.007e+06
 Factor NZ  : 2.462e+07 (roughly 600 MBytes of memory)
 Factor Ops : 1.101e+09 (less than 1 second per iteration)
 Threads    : 4

                  Objective                Residual
Iter       Primal          Dual         Primal    Dual     Compl     Time
   0  -1.82388097e+10 -2.10058055e+11  3.96e+04 1.16e-10  4.44e+06     2s
   1  -1.65154619e+10 -3.23884173e+11  3.52e+04 4.31e-09  3.86e+06     3s
   2  -1.16050702e+09 -2.37540185e+11  2.29e+03 5.03e-08  3.92e+05     3s
   3  -4.29064180e+08 -1.29662245e+11  6.30e+02 1.49e-08  1.36e+05     4s
   4  -2.89840628e+08 -5.00616493e+10  8.15e+01 1.92e-09  3.97e+04     4s
   5  -2.95841611e+08 -1.14947781e+10  6.86e+01 8.33e-10  9.05e+03     4s
   6  -4.62774801e+08 -6.15366615e+09  1.48e+01 5.68e-10  4.29e+03     5s
   7  -5.06479336e+08 -4.05118499e+09  1.00e+01 4.62e-10  2.66e+03     5s
   8  -5.78756414e+08 -3.26264664e+09  5.00e+00 3.73e-10  2.00e+03     6s
   9  -6.29150385e+08 -2.84776039e+09  2.99e+00 3.77e-10  1.65e+03     6s
  10  -6.64123594e+08 -2.40912840e+09  1.79e+00 2.98e-10  1.29e+03     7s
  11  -6.84533439e+08 -2.22173595e+09  1.09e+00 2.93e-10  1.14e+03     7s
  12  -6.96969169e+08 -2.01022573e+09  9.61e-01 3.32e-10  9.72e+02     7s
  13  -7.13137308e+08 -1.79534962e+09  8.24e-01 2.88e-10  8.00e+02     8s
  14  -7.39716618e+08 -1.53786114e+09  6.41e-01 3.11e-10  5.90e+02     8s
  15  -7.64284166e+08 -1.39569112e+09  5.18e-01 2.54e-10  4.67e+02     9s
  16  -7.76831579e+08 -1.38604152e+09  4.63e-01 3.07e-10  4.50e+02     9s
  17  -8.05513502e+08 -1.26440003e+09  3.58e-01 2.84e-10  3.39e+02    10s
  18  -8.21044644e+08 -1.21459798e+09  3.04e-01 2.66e-10  2.91e+02    10s
  19  -8.65631538e+08 -1.08026314e+09  1.68e-01 1.75e-10  1.58e+02    11s
  20  -8.85408674e+08 -1.05085222e+09  1.19e-01 1.82e-10  1.22e+02    11s
  21  -8.98118993e+08 -1.02602216e+09  9.07e-02 1.90e-10  9.44e+01    11s
  22  -9.06821951e+08 -1.01153262e+09  7.29e-02 2.17e-10  7.73e+01    12s
  23  -9.18101546e+08 -9.96558075e+08  5.16e-02 2.47e-10  5.79e+01    12s
  24  -9.26858534e+08 -9.74874485e+08  3.61e-02 2.55e-10  3.54e+01    13s
  25  -9.29705774e+08 -9.70921284e+08  3.12e-02 2.46e-10  3.04e+01    13s
  26  -9.33232474e+08 -9.65720529e+08  2.54e-02 2.32e-10  2.40e+01    14s
  27  -9.37120896e+08 -9.63022418e+08  1.92e-02 2.18e-10  1.91e+01    14s
  28  -9.41196749e+08 -9.60413170e+08  1.28e-02 2.69e-10  1.42e+01    14s
  29  -9.42356924e+08 -9.59029987e+08  1.10e-02 2.51e-10  1.23e+01    15s
  30  -9.45135890e+08 -9.57363436e+08  6.79e-03 3.13e-10  9.02e+00    15s
  31  -9.46523217e+08 -9.55672666e+08  4.64e-03 2.87e-10  6.75e+00    16s
  32  -9.47365848e+08 -9.54282051e+08  3.35e-03 2.73e-10  5.10e+00    16s
  33  -9.47707473e+08 -9.53443550e+08  2.83e-03 3.64e-10  4.23e+00    17s
  34  -9.48053346e+08 -9.52751224e+08  2.32e-03 4.13e-10  3.46e+00    17s
  35  -9.48244406e+08 -9.52312499e+08  2.04e-03 3.98e-10  3.00e+00    17s
  36  -9.48576866e+08 -9.51366302e+08  1.57e-03 3.71e-10  2.06e+00    18s
  37  -9.48810147e+08 -9.51028418e+08  1.24e-03 4.98e-10  1.64e+00    18s
  38  -9.48889707e+08 -9.50807591e+08  1.13e-03 3.47e-10  1.41e+00    19s
  39  -9.49028877e+08 -9.50622666e+08  9.46e-04 4.33e-10  1.18e+00    19s
  40  -9.49309332e+08 -9.50454889e+08  5.69e-04 3.09e-10  8.45e-01    19s
  41  -9.49420290e+08 -9.50241157e+08  4.14e-04 4.26e-10  6.05e-01    20s
  42  -9.49465251e+08 -9.50102560e+08  3.51e-04 4.69e-10  4.70e-01    20s
  43  -9.49498924e+08 -9.50050143e+08  3.06e-04 4.78e-10  4.07e-01    21s
  44  -9.49550713e+08 -9.50003706e+08  2.37e-04 5.31e-10  3.34e-01    21s
  45  -9.49604702e+08 -9.49953432e+08  1.65e-04 4.15e-10  2.57e-01    22s
  46  -9.49650282e+08 -9.49880978e+08  1.03e-04 6.22e-10  1.70e-01    22s
  47  -9.49662400e+08 -9.49841890e+08  8.58e-05 6.48e-10  1.32e-01    23s
  48  -9.49666074e+08 -9.49835714e+08  8.08e-05 5.09e-10  1.25e-01    23s
  49  -9.49670507e+08 -9.49830584e+08  7.48e-05 7.09e-10  1.18e-01    23s
  50  -9.49689324e+08 -9.49819409e+08  4.93e-05 4.87e-10  9.59e-02    24s
  51  -9.49696472e+08 -9.49792342e+08  3.90e-05 4.40e-10  7.07e-02    24s
  52  -9.49700160e+08 -9.49774691e+08  3.36e-05 6.58e-10  5.49e-02    25s
  53  -9.49704996e+08 -9.49767979e+08  2.71e-05 6.08e-10  4.64e-02    25s
  54  -9.49709727e+08 -9.49759518e+08  2.06e-05 6.00e-10  3.67e-02    26s
  55  -9.49714436e+08 -9.49754297e+08  1.42e-05 4.28e-10  2.94e-02    26s
  56  -9.49715951e+08 -9.49749610e+08  1.20e-05 7.17e-10  2.48e-02    26s
  57  -9.49717145e+08 -9.49742083e+08  1.02e-05 5.24e-10  1.84e-02    27s
  58  -9.49718884e+08 -9.49736583e+08  7.75e-06 3.82e-10  1.30e-02    27s
  59  -9.49720211e+08 -9.49735322e+08  5.98e-06 5.82e-10  1.11e-02    28s
  60  -9.49720978e+08 -9.49732518e+08  4.88e-06 6.88e-10  8.51e-03    28s
  61  -9.49721419e+08 -9.49730457e+08  4.29e-06 4.43e-10  6.66e-03    29s
  62  -9.49722611e+08 -9.49729016e+08  2.70e-06 4.37e-10  4.72e-03    29s
  63  -9.49723737e+08 -9.49728196e+08  1.11e-06 5.09e-10  3.28e-03    30s
  64  -9.49723974e+08 -9.49726760e+08  7.71e-07 5.51e-10  2.05e-03    30s
  65  -9.49724075e+08 -9.49726203e+08  6.34e-07 5.13e-10  1.57e-03    31s
  66  -9.49724151e+08 -9.49725583e+08  5.33e-07 4.38e-10  1.06e-03    31s
  67  -9.49724321e+08 -9.49725238e+08  3.25e-07 2.93e-10  6.76e-04    32s
  68  -9.49724382e+08 -9.49725052e+08  2.50e-07 8.16e-10  4.94e-04    32s
  69  -9.49724492e+08 -9.49724941e+08  1.15e-07 4.91e-10  3.31e-04    32s
  70  -9.49724528e+08 -9.49724828e+08  6.79e-08 3.96e-10  2.21e-04    33s
  71  -9.49724546e+08 -9.49724782e+08  4.44e-08 5.52e-10  1.74e-04    34s
  72  -9.49724551e+08 -9.49724747e+08  3.76e-08 7.37e-10  1.44e-04    34s
  73  -9.49724560e+08 -9.49724666e+08  2.64e-08 3.97e-10  7.81e-05    34s
  74  -9.49724571e+08 -9.49724626e+08  1.35e-08 4.16e-10  4.02e-05    35s
  75  -9.49724580e+08 -9.49724601e+08  4.17e-09 3.60e-10  1.54e-05    35s
  76  -9.49724583e+08 -9.49724594e+08  1.24e-09 2.95e-10  7.47e-06    36s
  77  -9.49724584e+08 -9.49724589e+08  5.39e-10 4.19e-10  3.70e-06    36s
  78  -9.49724584e+08 -9.49724585e+08  3.26e-10 5.35e-10  6.76e-07    37s
  79  -9.49724585e+08 -9.49724585e+08  3.66e-10 6.71e-10  1.57e-08    37s
  80  -9.49724585e+08 -9.49724585e+08  1.54e-10 4.07e-10  2.09e-09    38s

Barrier solved model in 80 iterations and 37.53 seconds
Optimal objective -9.49724585e+08

Crossover log...

  202469 DPushes remaining with DInf 1.6352913e-01                38s
   18898 DPushes remaining with DInf 1.7988680e-01                43s
    1267 DPushes remaining with DInf 1.4511062e-01                45s
       0 DPushes remaining with DInf 9.3411674e-07                46s

       3 PPushes remaining with PInf 2.8359081e-05                46s
       0 PPushes remaining with PInf 2.3369330e-05                46s

  Push phase complete: Pinf 2.3369330e-05, Dinf 1.7845526e+04     46s

Iteration    Objective       Primal Inf.    Dual Inf.      Time
  110386   -9.4972458e+08   0.000000e+00   1.784553e+04     46s
  110397   -9.4972458e+08   0.000000e+00   0.000000e+00     47s

Solved in 110397 iterations and 47.37 seconds
Optimal objective -9.497245849e+08
status: OPTIMAL
